(set-info :Origin "This instance was generated by: BanditFuzz-- an RL fuzzer for SMT solvers" )
(set-info :Author "Joe Scott, Fed Mora, Vijay Ganesh" )
(set-info :Contact "Joe Scott, joseph.scott@uwaterloo.ca")
; solvers/z3.sh
; 	time => 0.22237586975097656
; 	answer => err
; solvers/bitwuzla.sh
; 	time => 0.2420654296875
; 	answer => err
; solvers/cvc4.sh
; 	time => 0.20720553398132324
; 	answer => err
(set-logic QF_BV)
(declare-const bool_0 Bool)
(declare-const bool_1 Bool)
(declare-const bool_2 Bool)
(declare-const bool_3 Bool)
(declare-const bool_4 Bool)
(declare-const bv_0 (_ BitVec 8))
(declare-const bv_1 (_ BitVec 8))
(declare-const bv_2 (_ BitVec 8))
(declare-const bv_3 (_ BitVec 8))
(declare-const bv_4 (_ BitVec 8))
(assert (and (bvsgt (bvashr #x00000049  #x00000037 ) (bvurem #x00000052  bv_1)) (bvsge (bvnand bv_3 bv_3) (bvnand #x0000007e  bv_3))))
(assert (bvslt (bvand (bvsmod #x000000c6  bv_0) (bvsdiv #x0000003a  bv_4)) (bvnor (bvxor #x00000003  bv_1) (bvurem #x0000004b  #x0000005f ))))
(assert (bvule (bvnand (bvsmod #x0000001e  bv_3) (bvor bv_1 bv_0)) (bvsub (bvnor bv_4 bv_2) (bvashr bv_3 bv_0))))
(assert (bvugt (bvand (bvsmod bv_4 #x00000059 ) (bvxnor #x0000008e  bv_3)) (bvnor (bvshl bv_2 #x000000f2 ) (bvxnor bv_2 bv_1))))
(assert (xor (xor (bvule bv_0 #x000000a6 ) (and bool_3 false)) (or (not false) (xor bool_4 false))))
(check-sat)
(exit)
